dates = {'2022-04-03','2022-04-04','2022-04-05','2022-04-06','2022-04-07','2022-04-08','2022-04-09','2022-04-10','2022-04-11','2022-04-12'};

daysOfWeek = [Sunday,Monday,Tuesday,Wednesday,Thursday,Friday,Saturday,Sunday,Monday,Tuesday];

% For this week, how many people will be here.
numPeople = [89,89,89,89,89,89,89,89,89,89];

% Physical workers need 50 to 100 % more nutrients per day.
numPhysicalWorkers = [21.0,21.0,21.0,21.0,21.0,21.0,21.0,21.0,21.0,21.0];

% Males need +25% more nutrients per day.
numMen = [75,75,75,75,75,75,75,75,75,75];

% Num people who do not eat categories. contains = {none, meat, milk, gluten, egg, nut, seed, sugars}
numRefusals = [| 0,0,3,0,0,0,1,5 | 0,0,3,0,0,0,1,5 | 0,0,3,0,0,0,1,5 | 0,0,3,0,0,0,1,5 | 0,0,3,0,0,0,1,5 | 0,0,3,0,0,0,1,5 | 0,0,3,0,0,0,1,5 | 0,0,3,0,0,0,1,5 | 0,0,3,0,0,0,1,5 | 0,0,3,0,0,0,1,5 |];

